c  s208.1
c  18 inputs
c  9 outputs
c  38 inverters
c  66 gates ( 21 ANDs + 15 NANDs + 14 ORs + 16 NORs )
cc labels (1 C.8) (2 X.8) (3 C.4) (4 C.5) (5 C.6) (6 C.7) (7 X.6) (8 X.7) (9 C.0) (10 C.1) (11 C.2) (12 C.3) (13 X.4) (14 X.5) (15 X.3) (16 P.0) (17 X.2) (18 X.1) (19 I105.1) (20 I105.4) (21 I105.2) (22 I105.3) (23 I112) (24 I7.1) (25 I7.4) (26 I7.2) (27 I66) (28 I7.3) (29 I14) (30 I191.1) (31 I162) (32 I161) (33 I170.1) (34 I111) (35 I149) (36 I188.1) (37 I159) (38 I148) (39 I163) (40 I164) (41 I165) (42 I167.1) (43 I110) (44 I95.1) (45 I62) (46 I68) (47 I70.1) (48 I12) (49 I244) (50 I208.2) (51 P.8) (52 I270.3) (53 I216) (54 P.4) (55 I319.2) (56 I240) (57 I205.2) (58 P.5) (59 I319.1) (60 I314) (61 I310) (62 I206.2) (63 P.6) (64 I306) (65 I315.2) (66 I311) (67 I242) (68 I241) (69 I251) (70 I252) (71 I249) (72 I243) (73 I207.2) (74 I209.1) (75 P.7) (76 I307) (77 I315.1) (78 I269.2) (79 I295.2) (80 I212) (81 P.1) (82 I295.1) (83 I290) (84 I286) (85 P.2) (86 I282) (87 I291.2) (88 I287) (89 I214) (90 I213) (91 I224) (92 I225) (93 I222) (94 I215) (95 P.3) (96 I283) (97 I291.1) (98 I269.1) (99 I270.2) (100 Z) (101 I182.1) (102 I182.4) (103 I50) (104 I49) (105 I2.1) (106 I1.2) (107 I182.2) (108 I182.3) (109 I113) (110 I88.1) (111 I88.4) (112 I88.2) (113 I88.3) (114 I15) (115 I73.1) (116 I73.4) (117 I73.2) (118 I48) (119 I64) (120 I69) (121 I73.3) (122 I13)
cc inputs 1 2 3 4 5 6 7 8 9 10 11 12 13 14 15 16 17 18 
cc outputs 122 114 109 100 48 43 34 29 23 
p cnf 122 285
-122 121 116 0
122 -121 0
122 -116 0
121 -120 -117 0
-121 120 0
-121 117 0
120 119 118 0
-120 -119 0
-120 -118 0
-119 -18 -17 0
119 18 0
119 17 0
16 118 0
-16 -118 0
15 117 0
-15 -117 0
116 -15 -115 0
-116 15 0
-116 115 0
120 115 0
-120 -115 0
-114 113 111 0
114 -113 0
114 -111 0
113 -18 -112 0
-113 18 0
-113 112 0
16 112 0
-16 -112 0
111 -16 -110 0
-111 16 0
-111 110 0
18 110 0
-18 -110 0
-109 108 102 0
109 -108 0
109 -102 0
108 -14 -107 0
-108 14 0
-108 107 0
106 107 0
-106 -107 0
106 -105 -16 0
-106 105 0
-106 16 0
105 119 104 103 0
-105 -119 0
-105 -104 0
-105 -103 0
13 104 0
-13 -104 0
15 103 0
-15 -103 0
102 -106 -101 0
-102 106 0
-102 101 0
14 101 0
-14 -101 0
-100 99 52 0
100 -99 0
100 -52 0
-99 98 78 0
99 -98 0
99 -78 0
-98 -97 -87 -83 0
98 97 0
98 87 0
98 83 0
-97 96 88 0
97 -96 0
97 -88 0
95 96 0
-95 -96 0
95 94 93 0
-95 -94 0
-95 -93 0
15 94 0
-15 -94 0
-93 -92 -89 0
93 92 0
93 89 0
91 92 0
-91 -92 0
-91 -90 -16 0
91 90 0
91 16 0
18 90 0
-18 -90 0
17 89 0
-17 -89 0
12 88 0
-12 -88 0
-87 86 84 0
87 -86 0
87 -84 0
85 86 0
-85 -86 0
85 89 91 0
-85 -89 0
-85 -91 0
11 84 0
-11 -84 0
83 82 79 0
-83 -82 0
-83 -79 0
82 -81 -10 0
-82 81 0
-82 10 0
81 80 90 0
-81 -80 0
-81 -90 0
16 80 0
-16 -80 0
79 -16 -9 0
-79 16 0
-79 9 0
-78 -77 -65 -60 0
78 77 0
78 65 0
78 60 0
-77 76 66 0
77 -76 0
77 -66 0
75 76 0
-75 -76 0
75 -74 -73 0
-75 74 0
-75 73 0
74 13 17 15 18 0
-74 -13 0
-74 -17 0
-74 -15 0
-74 -18 0
73 72 71 0
-73 -72 0
-73 -71 0
8 72 0
-8 -72 0
-71 -70 -67 0
71 70 0
71 67 0
69 70 0
-69 -70 0
-69 -68 -16 0
69 68 0
69 16 0
14 68 0
-14 -68 0
7 67 0
-7 -67 0
6 66 0
-6 -66 0
-65 64 61 0
65 -64 0
65 -61 0
63 64 0
-63 -64 0
63 -74 -62 0
-63 74 0
-63 62 0
62 67 69 0
-62 -67 0
-62 -69 0
5 61 0
-5 -61 0
60 59 55 0
-60 -59 0
-60 -55 0
59 -58 -4 0
-59 58 0
-59 4 0
58 -74 -57 0
-58 74 0
-58 57 0
57 56 68 0
-57 -56 0
-57 -68 0
16 56 0
-16 -56 0
55 -54 -3 0
-55 54 0
-55 3 0
54 15 93 53 0
-54 -15 0
-54 -93 0
-54 -53 0
13 53 0
-13 -53 0
52 -51 -1 0
-52 51 0
-52 1 0
51 -74 -50 0
-51 74 0
-51 50 0
50 8 71 49 0
-50 -8 0
-50 -71 0
-50 -49 0
2 49 0
-2 -49 0
-48 -47 -45 0
48 47 0
48 45 0
-47 46 13 103 0
47 -46 0
47 -13 0
47 -103 0
120 46 0
-120 -46 0
-45 -44 -13 0
45 44 0
45 13 0
-44 119 103 118 0
44 -119 0
44 -103 0
44 -118 0
-43 -42 -37 0
43 42 0
43 37 0
-42 41 2 38 0
42 -41 0
42 -2 0
42 -38 0
-41 -40 -7 0
41 40 0
41 7 0
39 40 0
-39 -40 0
-39 -14 -106 0
39 14 0
39 106 0
8 38 0
-8 -38 0
-37 -36 -2 0
37 36 0
37 2 0
-36 39 35 38 0
36 -39 0
36 -35 0
36 -38 0
7 35 0
-7 -35 0
-34 -33 -32 0
34 33 0
34 32 0
-33 41 8 0
33 -41 0
33 -8 0
31 32 0
-31 -32 0
31 38 30 0
-31 -38 0
-31 -30 0
30 -40 -7 0
-30 40 0
-30 7 0
29 28 25 0
-29 -28 0
-29 -25 0
28 -27 -26 0
-28 27 0
-28 26 0
-27 -18 -16 0
27 18 0
27 16 0
17 26 0
-17 -26 0
25 -17 -24 0
-25 17 0
-25 24 0
27 24 0
-27 -24 0
23 22 20 0
-23 -22 0
-23 -20 0
22 -39 -21 0
-22 39 0
-22 21 0
7 21 0
-7 -21 0
20 -7 -19 0
-20 7 0
-20 19 0
39 19 0
-39 -19 0
